c array.sh: path:     /data/qbf/qbf20/PCNF/c1_BMC_p2_k1024.qdimacs
c array.sh: name:     c1_BMC_p2_k1024
c array.sh: task:     23
c array.sh: host:     c3n12
c array.sh: uname:    Linux c3n12 4.15.0-135-generic #139-Ubuntu SMP Mon Jan 18 17:38:24 UTC 2021 x86_64 x86_64 x86_64 GNU/Linux
c array.sh: start:    Tue Feb 16 22:43:50 CET 2021
c array.sh: noturbo:  1
c array.sh: governor: 32 performance
c array.sh: tmp:      1%
c array.sh: unzipped: /tmp/local-unzipped-18834727-23-c1_BMC_p2_k1024.cnf
using tmp directory:
  /tmp
running QBF solver...

/home/seidl/cert_tests/bin/ferp-models/ijtihad/ijtihad --dependencies=0 --wit_per_call=-1 --cex_per_call=-1 --log_phi=/tmp/ferpcert2748expanded.cnf /tmp/local-unzipped-18834727-23-c1_BMC_p2_k1024.cnf
c Options after parsing: 
c cex_per_call = 18446744073709551615
c wit_per_call = 18446744073709551615
c warmup = 1
c warmup_randoms = 0
c trimming_phi = 0
c trimming_ksi = 2
c trimming_interval = 200
c memory_limit = 3000000
c MySolverv970-glucose
-1 -2 -3 -4 
1 2 3 4 
c Number of calls is: 0
c Layers in PHI: 0
c Layers in KSI: 0
c Running Ijtihad loop
c sat_solver_phi calld 0 times, running for 1e-06 seconds.
c number of layers in PHI is 2
c sat_solver_ksi was running for 0 seconds.
c number of layers in KSI is 0
c mysolver was running for 6.08286 seconds.
s cnf 0
solving done with exit code 20

QBF solver OK

running SAT Solver...

/tmp/ferpcert2748expanded.cnf
s UNSATISFIABLE

PROOF GENERATION OK

checking unsat proof

resolved 1 root and 1 empty clause
trace-size2: 438

TRACE CHECK OK

running toferp...

ferp-size: 361
TOFERP OK

checking FERP PROOF...

c Warning: Variable count mismatch 1112282 1112283
FERP CHECK OK

extracting AIG ...

aig-size: 8329257
aig-header: aag 1112294 1110422 0 4 15
FERP CERT OK

merging  AIG into QBF ...

CERTCHECK OK

merged-cnf-header: p cnf 8866451 19925666
merged-cnf-size: 425699637
running SAT solver...

c ---- [ banner ] ------------------------------------------------------------
c
c KISSAT SAT Solver
c Copyright (c) 2019-2020 Armin Biere JKU Linz
c 
c Version 1.0.3 59813addcacc4d6fb880ebdd63685600475aa940
c gcc (Ubuntu 7.5.0-3ubuntu1~18.04) 7.5.0 -W -Wall -O3 -DNEMBEDDED -DNDEBUG -DNMETRICS -DNSTATISTICS
c Sun Feb 14 23:58:54 CET 2021 Linux cluster3 4.15.0-135-generic x86_64
c
c ---- [ parsing ] -----------------------------------------------------------
c
c opened and reading DIMACS file:
c 
c   /tmp/ferpcert_merged_cnf2748.cnf
c 
c parsed 'p cnf 8866451 19925666' header
c closing input after reading 425699637 bytes (406 MB)
c finished parsing after 5.79 seconds
c
c ---- [ solving ] -----------------------------------------------------------
c
c  seconds  reductions redundant irredundant
c          MB   restarts    trail          variables
c           level  conflicts   glue              remaining
c
c *  5.79 970 0  0  0   1   0 0% 0 19925664 6764846 76%
c {  5.79 970 0  0  0   1   0 0% 0 19925664 6764846 76%
c }  5.79 970 0  0  0   1   0 0% 0 19925664 6764846 76%
c 0  5.79 970 0  0  0   1   0 0% 0 19925664 6764846 76%
c
c ---- [ result ] ------------------------------------------------------------
c
s UNSATISFIABLE
c
c ---- [ profiling ] ---------------------------------------------------------
c
c           5.79   99.99 %  parse
c           0.00    0.00 %  search
c           0.00    0.00 %  focused
c           0.00    0.00 %  simplify
c =============================================
c           5.79  100.00 %  total
c
c ---- [ statistics ] --------------------------------------------------------
c
c conflicts:                                1                0.17 per second
c decisions:                                0                0.00 per conflict
c propagations:                        987402           170582    per second
c
c ---- [ resources ] ---------------------------------------------------------
c
c maximum-resident-set-size:       1017184256 bytes        970 MB
c process-time:                             5s               5.79 seconds
c
c ---- [ shutting down ] -----------------------------------------------------
c
c exit 20

SAT solver OK

VALID
c array.sh: end:      Tue Feb 16 22:44:49 CET 2021
